NAME : mtspf
COMMENT : file for mtspf test
TYPE : ATSP
DIMENSION : 5
EDGE_WEIGHT_TYPE : EXPLICIT
EDGE_WEIGHT_FORMAT : FULL_MATRIX
EDGE_WEIGHT_SECTION
0 -99999 99999 9 3 
99999 0 -99999 99999 12 
0 99999 0 -99999 99999 
0 0 0 0 99999 
0 0 0 10 0 
